n = 30;
lu = [|204, 754
      |-308, 351
      |-839, 373
      |438, 793
      |-470, -374
      |-801, -87
      |-130, 413
      |-734, -626
      |-885, 45
      |-404, 169
      |-848, -752
      |-573, 824
      |327, 771
      |-78, 187
      |440, 803
      |-187, 196
      |-762, -78
      |-852, -391
      |252, 749
      |-327, 476
      |-22, 662
      |-705, 258
      |-330, 480
      |251, 408
      |-672, 356
      |-267, 112
      |-636, 798
      |-268, 896
      |-384, -262
      |-736, 138|];
